; benchmark generated from python API
(set-info :status unknown)
(declare-fun DISJ_W_S2_R_S1 () Bool)
(declare-fun DISJ_W_S1_R_S2 () Bool)
(declare-fun DISJ_W_S2_R_S2 () Bool)
(declare-fun W_S2_V2 () Bool)
(declare-fun R_E1_V4 () Bool)
(declare-fun W_S1_V4 () Bool)
(declare-fun R_E1_V5 () Bool)
(declare-fun W_S1_V5 () Bool)
(declare-fun W_S2_V5 () Bool)
(declare-fun W_S2_V3 () Bool)
(declare-fun W_S2_V1 () Bool)
(declare-fun R_S2_V4 () Bool)
(declare-fun R_S2_V5 () Bool)
(declare-fun R_S2_V2 () Bool)
(declare-fun R_S2_V3 () Bool)
(declare-fun R_S2_V1 () Bool)
(declare-fun R_S1_V4 () Bool)
(declare-fun R_S1_V5 () Bool)
(declare-fun R_S1_V2 () Bool)
(declare-fun R_S1_V3 () Bool)
(declare-fun R_S1_V1 () Bool)
(declare-fun R_E1_V2 () Bool)
(declare-fun DISJ_W_S2_R_E1 () Bool)
(declare-fun DISJ_W_S1_W_S2 () Bool)
(declare-fun R_E1_V3 () Bool)
(declare-fun DISJ_W_S1_R_S1 () Bool)
(declare-fun W_S2_V4 () Bool)
(declare-fun W_S1_V3 () Bool)
(declare-fun W_S1_V2 () Bool)
(declare-fun W_S1_V1 () Bool)
(declare-fun R_E1_V1 () Bool)
(declare-fun DISJ_W_S1_R_E1 () Bool)
(assert
 (let (($x2485 (not (and DISJ_W_S1_R_S2 DISJ_W_S2_R_S1))))
 (let (($x2282 (not (and (not W_S2_V2) DISJ_W_S2_R_S2))))
 (let (($x5103 (not (and DISJ_W_S2_R_S1 DISJ_W_S2_R_S2))))
 (let (($x1123 (not (and W_S1_V4 R_E1_V4))))
 (let (($x3406 (not (and W_S1_V5 R_E1_V5))))
 (let (($x3512 (forall ((V3_0 Int) )(forall ((V2_0 Int) )(forall ((V5_0 Int) )(forall ((V4_0 Int) )(forall ((MW_S1_V1 Bool) )(forall ((MW_S1_V3 Bool) )(forall ((MW_S1_V2 Bool) )(forall ((MW_S1_V5 Bool) )(forall ((MW_S1_V4 Bool) )(forall ((MW_S2_V1 Bool) )(forall ((MW_S2_V3 Bool) )(forall ((MW_S2_V2 Bool) )(forall ((MW_S2_V5 Bool) )(forall ((MW_S2_V4 Bool) )(forall ((S1_V1_!2447 Int) )(forall ((S1_V1_!2464 Int) )(forall ((S1_V1_!2474 Int) )(forall ((S2_V5_!2456 Int) )(forall ((S2_V5_!2461 Int) )(forall ((S2_V5_!2472 Int) )(forall ((S2_V5_!2482 Int) )(forall ((S1_V3_!2448 Int) )(forall ((S1_V3_!2465 Int) )(forall ((S1_V3_!2475 Int) )(forall ((S1_V2_!2449 Int) )(forall ((S1_V2_!2466 Int) )(forall ((S1_V2_!2476 Int) )(forall ((E1_!2446 Int) )(forall ((E1_!2452 Int) )(forall ((E1_!2463 Int) )(forall ((S2_V4_!2457 Int) )(forall ((S2_V4_!2462 Int) )(forall ((S2_V4_!2473 Int) )(forall ((S2_V4_!2483 Int) )(forall ((S1_V5_!2450 Int) )(forall ((S1_V5_!2467 Int) )(forall ((S1_V5_!2477 Int) )(forall ((S2_V1_!2453 Int) )(forall ((S2_V1_!2458 Int) )(forall ((S2_V1_!2469 Int) )(forall ((S2_V1_!2479 Int) )(forall ((S1_V4_!2451 Int) )(forall ((S1_V4_!2468 Int) )(forall ((S1_V4_!2478 Int) )(forall ((S2_V2_!2455 Int) )(forall ((S2_V2_!2460 Int) )(forall ((S2_V2_!2471 Int) )(forall ((S2_V2_!2481 Int) )(forall ((S2_V3_!2454 Int) )(forall ((S2_V3_!2459 Int) )(forall ((S2_V3_!2470 Int) )(forall ((S2_V3_!2480 Int) )(let (($x3308 (= (ite MW_S2_V4 S2_V4_!2462 (ite MW_S1_V4 S1_V4_!2451 V4_0)) (ite MW_S2_V4 S2_V4_!2483 (ite MW_S1_V4 S1_V4_!2478 (ite MW_S2_V4 S2_V4_!2473 (ite MW_S1_V4 S1_V4_!2468 V4_0)))))))
 (let (($x6060 (= (ite MW_S2_V5 S2_V5_!2461 (ite MW_S1_V5 S1_V5_!2450 V5_0)) (ite MW_S2_V5 S2_V5_!2482 (ite MW_S1_V5 S1_V5_!2477 (ite MW_S2_V5 S2_V5_!2472 (ite MW_S1_V5 S1_V5_!2467 V5_0)))))))
 (let ((?x4224 (ite MW_S1_V2 S1_V2_!2466 V2_0)))
 (let ((?x75 (ite MW_S2_V2 S2_V2_!2471 ?x4224)))
 (let ((?x4176 (ite MW_S1_V2 S1_V2_!2476 ?x75)))
 (let ((?x5653 (ite MW_S2_V2 S2_V2_!2481 ?x4176)))
 (let ((?x2980 (ite MW_S1_V2 S1_V2_!2449 V2_0)))
 (let ((?x675 (ite MW_S2_V2 S2_V2_!2460 ?x2980)))
 (let (($x6058 (= (ite MW_S2_V3 S2_V3_!2459 (ite MW_S1_V3 S1_V3_!2448 V3_0)) (ite MW_S2_V3 S2_V3_!2480 (ite MW_S1_V3 S1_V3_!2475 (ite MW_S2_V3 S2_V3_!2470 (ite MW_S1_V3 S1_V3_!2465 V3_0)))))))
 (let ((?x2667 (ite MW_S1_V1 S1_V1_!2464 E1_!2463)))
 (let ((?x2101 (ite MW_S2_V1 S2_V1_!2469 ?x2667)))
 (let ((?x5270 (+ 1 ?x2101)))
 (let ((?x871 (ite MW_S1_V1 S1_V1_!2474 ?x5270)))
 (let ((?x341 (ite MW_S2_V1 S2_V1_!2479 ?x871)))
 (let ((?x710 (ite MW_S2_V1 S2_V1_!2453 E1_!2452)))
 (let ((?x350 (+ 1 ?x710)))
 (let ((?x806 (ite MW_S2_V1 S2_V1_!2458 ?x350)))
 (let (($x4854 (and (not (<= V2_0 E1_!2446)) (>= (ite MW_S1_V1 S1_V1_!2447 E1_!2446) (+ (- 1) ?x2980)) (not (<= ?x2980 E1_!2452)) (not (<= (ite MW_S2_V2 S2_V2_!2455 ?x2980) ?x350)) (>= ?x806 (+ (- 1) ?x675)) (not (<= V2_0 E1_!2463)) (not (<= ?x75 ?x5270)) (>= ?x341 (+ (- 1) ?x5653)))))
 (let (($x570 (= S2_V3_!2480 S2_V3_!2470)))
 (let ((?x763 (ite MW_S1_V4 S1_V4_!2468 V4_0)))
 (let ((?x1452 (ite MW_S2_V4 S2_V4_!2473 ?x763)))
 (let ((?x750 (ite MW_S1_V4 S1_V4_!2478 ?x1452)))
 (let (($x1834 (not R_S2_V4)))
 (let ((?x6063 (ite MW_S1_V5 S1_V5_!2467 V5_0)))
 (let ((?x3221 (ite MW_S2_V5 S2_V5_!2472 ?x6063)))
 (let ((?x5689 (ite MW_S1_V5 S1_V5_!2477 ?x3221)))
 (let (($x2484 (not R_S2_V5)))
 (let ((?x3502 (ite MW_S1_V3 S1_V3_!2465 V3_0)))
 (let ((?x3724 (ite MW_S2_V3 S2_V3_!2470 ?x3502)))
 (let ((?x1179 (ite MW_S1_V3 S1_V3_!2475 ?x3724)))
 (let (($x1413 (not R_S2_V3)))
 (let (($x1212 (and (or (not R_S2_V1) (= ?x871 ?x2667)) (or $x1413 (= ?x1179 ?x3502)) (or (not R_S2_V2) (= ?x4176 ?x4224)) (or $x2484 (= ?x5689 ?x6063)) (or $x1834 (= ?x750 ?x763)))))
 (let (($x1615 (not $x1212)))
 (let (($x305 (= S2_V3_!2480 S2_V3_!2459)))
 (let (($x882 (and (or (not R_S2_V1) (= ?x871 ?x350)) (or $x1413 (= ?x1179 (ite MW_S2_V3 S2_V3_!2454 (ite MW_S1_V3 S1_V3_!2448 V3_0)))) (or (not R_S2_V2) (= ?x4176 (ite MW_S2_V2 S2_V2_!2455 ?x2980))) (or $x2484 (= ?x5689 (ite MW_S2_V5 S2_V5_!2456 (ite MW_S1_V5 S1_V5_!2450 V5_0)))) (or $x1834 (= ?x750 (ite MW_S2_V4 S2_V4_!2457 (ite MW_S1_V4 S1_V4_!2451 V4_0)))))))
 (let (($x850 (not $x882)))
 (let (($x4184 (= S2_V3_!2470 S2_V3_!2459)))
 (let (($x2200 (and (or (not R_S2_V1) (= ?x2667 ?x350)) (or $x1413 (= ?x3502 (ite MW_S2_V3 S2_V3_!2454 (ite MW_S1_V3 S1_V3_!2448 V3_0)))) (or (not R_S2_V2) (= ?x4224 (ite MW_S2_V2 S2_V2_!2455 ?x2980))) (or $x2484 (= ?x6063 (ite MW_S2_V5 S2_V5_!2456 (ite MW_S1_V5 S1_V5_!2450 V5_0)))) (or $x1834 (= ?x763 (ite MW_S2_V4 S2_V4_!2457 (ite MW_S1_V4 S1_V4_!2451 V4_0)))))))
 (let (($x624 (not $x2200)))
 (let (($x1854 (= S2_V3_!2454 S2_V3_!2480)))
 (let (($x2860 (and (or (not R_S2_V1) (= E1_!2452 ?x871)) (or $x1413 (= (ite MW_S1_V3 S1_V3_!2448 V3_0) ?x1179)) (or (not R_S2_V2) (= ?x2980 ?x4176)) (or $x2484 (= (ite MW_S1_V5 S1_V5_!2450 V5_0) ?x5689)) (or $x1834 (= (ite MW_S1_V4 S1_V4_!2451 V4_0) ?x750)))))
 (let (($x147 (not $x2860)))
 (let (($x896 (= S2_V3_!2454 S2_V3_!2470)))
 (let (($x4820 (and (or (not R_S2_V1) (= E1_!2452 ?x2667)) (or $x1413 (= (ite MW_S1_V3 S1_V3_!2448 V3_0) ?x3502)) (or (not R_S2_V2) (= ?x2980 ?x4224)) (or $x2484 (= (ite MW_S1_V5 S1_V5_!2450 V5_0) ?x6063)) (or $x1834 (= (ite MW_S1_V4 S1_V4_!2451 V4_0) ?x763)))))
 (let (($x2015 (not $x4820)))
 (let (($x2446 (= S2_V3_!2454 S2_V3_!2459)))
 (let (($x2944 (or $x1834 (= (ite MW_S1_V4 S1_V4_!2451 V4_0) (ite MW_S2_V4 S2_V4_!2457 (ite MW_S1_V4 S1_V4_!2451 V4_0))))))
 (let (($x2526 (or $x2484 (= (ite MW_S1_V5 S1_V5_!2450 V5_0) (ite MW_S2_V5 S2_V5_!2456 (ite MW_S1_V5 S1_V5_!2450 V5_0))))))
 (let (($x2372 (or $x1413 (= (ite MW_S1_V3 S1_V3_!2448 V3_0) (ite MW_S2_V3 S2_V3_!2454 (ite MW_S1_V3 S1_V3_!2448 V3_0))))))
 (let (($x2266 (and (or (not R_S2_V1) (= E1_!2452 ?x350)) $x2372 (or (not R_S2_V2) (= ?x2980 (ite MW_S2_V2 S2_V2_!2455 ?x2980))) $x2526 $x2944)))
 (let (($x128 (not $x2266)))
 (let (($x5982 (= S2_V2_!2481 S2_V2_!2455)))
 (let (($x2291 (and (or (not R_S2_V1) (= ?x871 E1_!2452)) (or $x1413 (= ?x1179 (ite MW_S1_V3 S1_V3_!2448 V3_0))) (or (not R_S2_V2) (= ?x4176 ?x2980)) (or $x2484 (= ?x5689 (ite MW_S1_V5 S1_V5_!2450 V5_0))) (or $x1834 (= ?x750 (ite MW_S1_V4 S1_V4_!2451 V4_0))))))
 (let (($x1711 (not $x2291)))
 (let (($x1396 (= S2_V2_!2471 S2_V2_!2481)))
 (let (($x3413 (and (or (not R_S2_V1) (= ?x2667 ?x871)) (or $x1413 (= ?x3502 ?x1179)) (or (not R_S2_V2) (= ?x4224 ?x4176)) (or $x2484 (= ?x6063 ?x5689)) (or $x1834 (= ?x763 ?x750)))))
 (let (($x3785 (not $x3413)))
 (let (($x723 (= S2_V2_!2471 S2_V2_!2455)))
 (let (($x1416 (and (or (not R_S2_V1) (= ?x2667 E1_!2452)) (or $x1413 (= ?x3502 (ite MW_S1_V3 S1_V3_!2448 V3_0))) (or (not R_S2_V2) (= ?x4224 ?x2980)) (or $x2484 (= ?x6063 (ite MW_S1_V5 S1_V5_!2450 V5_0))) (or $x1834 (= ?x763 (ite MW_S1_V4 S1_V4_!2451 V4_0))))))
 (let (($x1658 (not $x1416)))
 (let (($x503 (not R_S1_V4)))
 (let (($x331 (or $x503 (= ?x1452 V4_0))))
 (let (($x3326 (not R_S1_V5)))
 (let (($x4631 (or $x3326 (= ?x3221 V5_0))))
 (let (($x2189 (not R_S1_V2)))
 (let (($x287 (or $x2189 (= ?x75 V2_0))))
 (let (($x3144 (not R_S1_V3)))
 (let (($x5763 (or $x3144 (= ?x3724 V3_0))))
 (let (($x5310 (and (or (not R_S1_V1) (= ?x2101 (+ (- 1) E1_!2446))) $x5763 $x287 $x4631 $x331)))
 (let (($x2294 (not $x5310)))
 (let (($x2552 (= S1_V4_!2468 S1_V4_!2478)))
 (let (($x1109 (or $x503 (= V4_0 ?x1452))))
 (let (($x2306 (or $x3326 (= V5_0 ?x3221))))
 (let (($x1105 (or $x2189 (= V2_0 ?x75))))
 (let (($x3560 (or $x3144 (= V3_0 ?x3724))))
 (let (($x2724 (not (and (or (not R_S1_V1) (= E1_!2463 ?x5270)) $x3560 $x1105 $x2306 $x1109))))
 (let (($x61 (and (or (not R_S2_V1) (= ?x710 (+ (- 1) ?x871))) (or $x1413 (= (ite MW_S2_V3 S2_V3_!2454 (ite MW_S1_V3 S1_V3_!2448 V3_0)) ?x1179)) (or (not R_S2_V2) (= (ite MW_S2_V2 S2_V2_!2455 ?x2980) ?x4176)) (or $x2484 (= (ite MW_S2_V5 S2_V5_!2456 (ite MW_S1_V5 S1_V5_!2450 V5_0)) ?x5689)) (or $x1834 (= (ite MW_S2_V4 S2_V4_!2457 (ite MW_S1_V4 S1_V4_!2451 V4_0)) ?x750)))))
 (let (($x5362 (not $x61)))
 (let (($x2800 (and (or (not R_S1_V1) (= ?x2101 (+ (- 1) E1_!2463))) $x5763 $x287 $x4631 $x331)))
 (let (($x3014 (not $x2800)))
 (let (($x228 (and (or (not R_S2_V1) (= ?x710 (+ (- 1) ?x2667))) (or $x1413 (= (ite MW_S2_V3 S2_V3_!2454 (ite MW_S1_V3 S1_V3_!2448 V3_0)) ?x3502)) (or (not R_S2_V2) (= (ite MW_S2_V2 S2_V2_!2455 ?x2980) ?x4224)) (or $x2484 (= (ite MW_S2_V5 S2_V5_!2456 (ite MW_S1_V5 S1_V5_!2450 V5_0)) ?x6063)) (or $x1834 (= (ite MW_S2_V4 S2_V4_!2457 (ite MW_S1_V4 S1_V4_!2451 V4_0)) ?x763)))))
 (let (($x5912 (not $x228)))
 (let (($x5845 (= E1_!2463 E1_!2446)))
 (let (($x3934 (and (or (not R_E1_V2) (= ?x2980 V2_0)) (or (not R_E1_V5) (= (ite MW_S1_V5 S1_V5_!2450 V5_0) V5_0)) (or (not R_E1_V4) (= (ite MW_S1_V4 S1_V4_!2451 V4_0) V4_0)))))
 (let (($x5203 (not $x3934)))
 (let (($x2597 (or $x1834 (= (ite MW_S2_V4 S2_V4_!2457 (ite MW_S1_V4 S1_V4_!2451 V4_0)) (ite MW_S1_V4 S1_V4_!2451 V4_0)))))
 (let (($x4026 (or $x2484 (= (ite MW_S2_V5 S2_V5_!2456 (ite MW_S1_V5 S1_V5_!2450 V5_0)) (ite MW_S1_V5 S1_V5_!2450 V5_0)))))
 (let (($x2053 (or $x1413 (= (ite MW_S2_V3 S2_V3_!2454 (ite MW_S1_V3 S1_V3_!2448 V3_0)) (ite MW_S1_V3 S1_V3_!2448 V3_0)))))
 (let (($x5877 (and (or (not R_S2_V1) (= ?x710 (+ (- 1) E1_!2452))) $x2053 (or (not R_S2_V2) (= (ite MW_S2_V2 S2_V2_!2455 ?x2980) ?x2980)) $x4026 $x2597)))
 (let (($x3499 (or (not (and (or (not R_S1_V1) (= E1_!2446 ?x5270)) $x3560 $x1105 $x2306 $x1109)) (= S1_V1_!2447 S1_V1_!2474))))
 (let (($x3384 (and $x3499 (or (not (or (not R_S1_V1) $x5845)) (= S1_V1_!2464 S1_V1_!2447)) (or $x2724 (= S1_V1_!2464 S1_V1_!2474)) (or $x2015 (= S2_V5_!2456 S2_V5_!2472)) (or (not $x5877) (= S2_V5_!2461 S2_V5_!2456)) (or $x5912 (= S2_V5_!2461 S2_V5_!2472)) (or $x1711 (= S2_V5_!2482 S2_V5_!2456)) (or $x850 (= S2_V5_!2482 S2_V5_!2461)) (or $x1615 (= S2_V5_!2482 S2_V5_!2472)) (or (not (or (not R_S1_V1) $x5845)) (= S1_V3_!2465 S1_V3_!2448)) (or $x2724 (= S1_V3_!2465 S1_V3_!2475)) (or $x2294 (= S1_V3_!2475 S1_V3_!2448)) (or (not (or (not R_S1_V1) $x5845)) (= S1_V2_!2466 S1_V2_!2449)) (or $x2294 (= S1_V2_!2476 S1_V2_!2449)) (or $x3014 (= S1_V2_!2476 S1_V2_!2466)) (or $x5203 (= E1_!2452 E1_!2446)) (or $x5203 (= E1_!2452 E1_!2463)) $x5845 (or $x128 (= S2_V4_!2457 S2_V4_!2462)) (or $x2015 (= S2_V4_!2457 S2_V4_!2473)) (or $x147 (= S2_V4_!2457 S2_V4_!2483)) (or $x5912 (= S2_V4_!2462 S2_V4_!2473)) (or $x5362 (= S2_V4_!2462 S2_V4_!2483)) (or $x1615 (= S2_V4_!2483 S2_V4_!2473)) (or (not (or (not R_S1_V1) $x5845)) (= S1_V5_!2467 S1_V5_!2450)) (or $x2294 (= S1_V5_!2477 S1_V5_!2450)) (or $x3014 (= S1_V5_!2477 S1_V5_!2467)) (or $x128 (= S2_V1_!2453 S2_V1_!2458)) (or $x147 (= S2_V1_!2453 S2_V1_!2479)) (or $x5362 (= S2_V1_!2458 S2_V1_!2479)) (or $x1658 (= S2_V1_!2469 S2_V1_!2453)) (or $x624 (= S2_V1_!2469 S2_V1_!2458)) (or $x3785 (= S2_V1_!2469 S2_V1_!2479)) (or (not (or (not R_S1_V1) $x5845)) (= S1_V4_!2468 S1_V4_!2451)) (or $x2724 $x2552) (or $x2294 (= S1_V4_!2478 S1_V4_!2451)) (or $x128 (= S2_V2_!2455 S2_V2_!2460)) (or $x1658 $x723) (or $x624 (= S2_V2_!2471 S2_V2_!2460)) (or $x3785 $x1396) (or $x1711 $x5982) (or $x850 (= S2_V2_!2481 S2_V2_!2460)) (or $x128 $x2446) (or $x2015 $x896) (or $x147 $x1854) (or $x624 $x4184) (or $x850 $x305) (or $x1615 $x570) (not MW_S1_V1) (not MW_S1_V2) (or (not MW_S1_V5) W_S1_V5) (or (not MW_S1_V4) W_S1_V4) (or (not MW_S2_V1) W_S2_V1) (or (not MW_S2_V3) W_S2_V3) (or (not MW_S2_V2) W_S2_V2) (or (not MW_S2_V5) W_S2_V5))))
 (or (not $x3384) (not $x4854) (and (= ?x806 ?x341) $x6058 (= ?x675 ?x5653) $x6060 $x3308))))))))))))))))))))))))))))))))))))))))))))))))))))))))))))))))))))))))))))))))))))))))))))))
 )
 )
 )
 )
 )
 )
 )
 )
 )
 )
 )
 )
 )
 )
 )
 )
 )
 )
 )
 )
 )
 )
 )
 )
 )
 )
 )
 )
 )
 )
 )
 )
 )
 )
 )
 )
 )
 )
 )
 )
 )
 )
 )
 )
 )
 )
 )
 )
 )
 )
 )
 ))
 (let (($x2277 (not (or (and W_S2_V2 R_E1_V2) (and W_S2_V5 R_E1_V5) R_E1_V4))))
 (let (($x88 (= DISJ_W_S2_R_E1 $x2277)))
 (let (($x2932 (and W_S2_V5 R_S2_V5)))
 (let (($x1945 (and W_S2_V2 R_S2_V2)))
 (let (($x2749 (and W_S2_V3 R_S2_V3)))
 (let (($x1954 (and W_S2_V1 R_S2_V1)))
 (let (($x5201 (= DISJ_W_S2_R_S2 (not (or $x1954 $x2749 $x1945 $x2932 R_S2_V4)))))
 (let (($x1970 (and W_S2_V5 R_S1_V5)))
 (let (($x2476 (and W_S2_V2 R_S1_V2)))
 (let (($x999 (and W_S2_V3 R_S1_V3)))
 (let (($x4645 (and W_S2_V1 R_S1_V1)))
 (let (($x5594 (= DISJ_W_S2_R_S1 (not (or $x4645 $x999 $x2476 $x1970 R_S1_V4)))))
 (let (($x2096 (= DISJ_W_S1_W_S2 (not (or W_S2_V3 (and W_S1_V5 W_S2_V5) W_S1_V4)))))
 (let (($x2005 (not R_E1_V3)))
 (let (($x6040 (not (or R_S2_V3 (and W_S1_V5 R_S2_V5) (and W_S1_V4 R_S2_V4)))))
 (let (($x3415 (= DISJ_W_S1_R_S2 $x6040)))
 (let (($x4983 (not (or R_S1_V3 (and W_S1_V5 R_S1_V5) (and W_S1_V4 R_S1_V4)))))
 (let (($x4794 (= DISJ_W_S1_R_S1 $x4983)))
 (let (($x5780 (not R_S1_V1)))
 (let (($x2801 (and $x5780 DISJ_W_S1_R_S1)))
 (let (($x5735 (not W_S2_V2)))
 (let (($x3278 (not W_S2_V1)))
 (let (($x2068 (and $x3278 $x5735)))
 (let (($x2480 (and $x5735 DISJ_W_S2_R_S1 DISJ_W_S1_R_S1)))
 (let (($x700 (or $x2480 $x2068 $x2801)))
 (let (($x5995 (not W_S1_V2)))
 (let (($x2911 (not W_S1_V1)))
 (let (($x253 (not R_E1_V1)))
 (let (($x1340 (and DISJ_W_S1_R_E1 $x253 $x2911 $x5995 $x700 W_S1_V3 W_S2_V4 $x4794 $x3415 $x2005 $x2096 $x5594 $x5201 $x88 $x3512 $x3406 $x1123)))
 (and $x1340 $x5103 $x2282 $x2485)))))))))))))))))))))))))))))))))))))
(check-sat)
